(declare-const x0 Bool)
(declare-const x1 Bool)
(declare-const x2 Bool)
(declare-const x3 Bool)
(declare-const x4 Bool)
(declare-const x5 Bool)
(declare-const x6 Bool)
(declare-const x7 Bool)
(declare-const x8 Bool)
(declare-const x9 Bool)
(declare-const x10 Bool)
(declare-const x11 Bool)
(declare-const x12 Bool)
(declare-const x13 Bool)
(declare-const y0 Real)
(declare-const y1 Real)
(declare-const y2 Real)
(declare-const y3 Real)
(declare-const y4 Real)
(declare-const y5 Real)
(declare-const y6 Real)
(declare-const y7 Real)
(declare-const y8 Real)
(declare-const y9 Real)
(declare-const y10 Real)
(declare-const y11 Real)
(declare-const y12 Real)
(declare-const y13 Real)
(declare-const y14 Real)
(declare-const y15 Real)
(declare-const y16 Real)
(declare-const y17 Real)
(declare-const y18 Real)
(assert (or (= y17 (+ y17 y17)) (and (< y6 y10) (and x13 false))))
(assert (< 97 33))
(assert (< (+ y2 18) 71))
(assert (or (or false (< (+ y15 1) (+ 91 60))) (= 28 (+ 43 y17))))
(assert (= y7 y6))
(assert (or (and x9 false) x12))
(assert (or false (= x2 (= x6 false))))
(assert (= 68 y18))
(assert (and (and true (or false x8)) (and (or true (and x6 true)) (< y6 (+ 29 (+ 55 58))))))
(assert true)
(check-sat)
